20
20
543
528
512
511
491
484
441
287
257
245
242
191
180
149
145
131
126
75
35
34
20	914
43	597
146	737
455	708
541	837
980	602
983	594
997	555
509	267
634	133
42	234
245	615
820	516
897	553
427	218
810	410
891	402
903	326
634	227
259	10
